language ESSENCE' 1.0

letting C_FunctionND be
        [[0, 0, 0, 0, 0, 0, 0, 0, 0, 0, 0, 0, 0, 0, 0, 0, 0, 0, 0, 0, 0, 0; int(0..21)],
         [1, 0, 0, 0, 0, 0, 0, 0, 0, 0, 0, 0, 0, 0, 0, 0, 0, 0, 0, 0, 0, 0; int(0..21)],
         [1, 0, 0, 0, 0, 0, 0, 0, 0, 0, 0, 0, 0, 0, 0, 0, 0, 0, 0, 0, 0, 0; int(0..21)],
         [1, 0, 0, 0, 0, 0, 0, 0, 0, 0, 0, 0, 0, 0, 0, 0, 0, 0, 0, 0, 0, 0; int(0..21)],
         [1, 0, 0, 0, 0, 0, 0, 0, 0, 0, 0, 0, 0, 0, 0, 0, 0, 0, 0, 0, 0, 0; int(0..21)],
         [1, 0, 0, 0, 0, 0, 0, 0, 0, 0, 0, 0, 0, 0, 0, 0, 0, 0, 0, 0, 0, 0; int(0..21)],
         [1, 0, 0, 0, 0, 0, 0, 0, 0, 0, 0, 0, 0, 0, 0, 0, 0, 0, 0, 0, 0, 0; int(0..21)],
         [1, 0, 0, 0, 0, 0, 0, 0, 0, 0, 0, 0, 0, 0, 0, 0, 0, 0, 0, 0, 0, 0; int(0..21)],
         [1, 0, 0, 0, 0, 0, 0, 0, 0, 0, 0, 0, 0, 0, 0, 0, 0, 0, 0, 0, 0, 0; int(0..21)],
         [0, 1, 1, 0, 0, 1, 1, 1, 1, 0, 0, 0, 0, 0, 0, 0, 0, 0, 0, 0, 0, 0; int(0..21)],
         [0, 1, 0, 1, 1, 0, 0, 0, 0, 0, 0, 0, 0, 0, 0, 0, 0, 0, 0, 0, 0, 0; int(0..21)],
         [0, 0, 1, 1, 0, 0, 0, 0, 0, 0, 0, 0, 0, 0, 0, 0, 0, 0, 0, 0, 0, 0; int(0..21)],
         [0, 0, 1, 0, 1, 0, 0, 0, 0, 0, 0, 0, 0, 0, 0, 0, 0, 0, 0, 0, 0, 0; int(0..21)],
         [0, 0, 0, 1, 0, 1, 0, 0, 0, 0, 0, 0, 0, 0, 0, 0, 0, 0, 0, 0, 0, 0; int(0..21)],
         [0, 0, 0, 1, 0, 0, 1, 0, 0, 0, 0, 0, 0, 0, 0, 0, 0, 0, 0, 0, 0, 0; int(0..21)],
         [0, 0, 0, 1, 0, 0, 0, 1, 0, 0, 0, 0, 0, 0, 0, 0, 0, 0, 0, 0, 0, 0; int(0..21)],
         [0, 0, 0, 1, 0, 0, 0, 0, 1, 0, 0, 0, 0, 0, 0, 0, 0, 0, 0, 0, 0, 0; int(0..21)],
         [0, 0, 0, 0, 1, 1, 0, 0, 0, 0, 0, 0, 0, 0, 0, 0, 0, 0, 0, 0, 0, 0; int(0..21)],
         [0, 0, 0, 0, 1, 0, 1, 0, 0, 0, 0, 0, 0, 0, 0, 0, 0, 0, 0, 0, 0, 0; int(0..21)],
         [0, 0, 0, 0, 1, 0, 0, 1, 0, 0, 0, 0, 0, 0, 0, 0, 0, 0, 0, 0, 0, 0; int(0..21)],
         [0, 0, 0, 0, 1, 0, 0, 0, 1, 0, 0, 0, 0, 0, 0, 0, 0, 0, 0, 0, 0, 0; int(0..21)],
         [0, 0, 0, 0, 0, 0, 0, 0, 0, 1, 1, 1, 1, 1, 1, 1, 1, 1, 1, 1, 1, 0; int(0..21)];
             int(0..21)]
$ Visualisation for C_FunctionND
$ 0 0 0 0 0 0 0 0 0 0 0 0 0 0 0 0 0 0 0 0 0 0
$ 1 0 0 0 0 0 0 0 0 0 0 0 0 0 0 0 0 0 0 0 0 0
$ 1 0 0 0 0 0 0 0 0 0 0 0 0 0 0 0 0 0 0 0 0 0
$ 1 0 0 0 0 0 0 0 0 0 0 0 0 0 0 0 0 0 0 0 0 0
$ 1 0 0 0 0 0 0 0 0 0 0 0 0 0 0 0 0 0 0 0 0 0
$ 1 0 0 0 0 0 0 0 0 0 0 0 0 0 0 0 0 0 0 0 0 0
$ 1 0 0 0 0 0 0 0 0 0 0 0 0 0 0 0 0 0 0 0 0 0
$ 1 0 0 0 0 0 0 0 0 0 0 0 0 0 0 0 0 0 0 0 0 0
$ 1 0 0 0 0 0 0 0 0 0 0 0 0 0 0 0 0 0 0 0 0 0
$ 0 1 1 0 0 1 1 1 1 0 0 0 0 0 0 0 0 0 0 0 0 0
$ 0 1 0 1 1 0 0 0 0 0 0 0 0 0 0 0 0 0 0 0 0 0
$ 0 0 1 1 0 0 0 0 0 0 0 0 0 0 0 0 0 0 0 0 0 0
$ 0 0 1 0 1 0 0 0 0 0 0 0 0 0 0 0 0 0 0 0 0 0
$ 0 0 0 1 0 1 0 0 0 0 0 0 0 0 0 0 0 0 0 0 0 0
$ 0 0 0 1 0 0 1 0 0 0 0 0 0 0 0 0 0 0 0 0 0 0
$ 0 0 0 1 0 0 0 1 0 0 0 0 0 0 0 0 0 0 0 0 0 0
$ 0 0 0 1 0 0 0 0 1 0 0 0 0 0 0 0 0 0 0 0 0 0
$ 0 0 0 0 1 1 0 0 0 0 0 0 0 0 0 0 0 0 0 0 0 0
$ 0 0 0 0 1 0 1 0 0 0 0 0 0 0 0 0 0 0 0 0 0 0
$ 0 0 0 0 1 0 0 1 0 0 0 0 0 0 0 0 0 0 0 0 0 0
$ 0 0 0 0 1 0 0 0 1 0 0 0 0 0 0 0 0 0 0 0 0 0
$ 0 0 0 0 0 0 0 0 0 1 1 1 1 1 1 1 1 1 1 1 1 0

letting J_FunctionND be
        [[0, 1, 2, 3, 4, 5, 6, 7, 8, 9, 10, 11, 12, 13, 14, 15, 16, 17, 18, 19, 20, 21; int(0..21)],
         [1, 1, 9, 10, 10, 9, 9, 9, 9, 9, 10, 21, 21, 21, 21, 21, 21, 21, 21, 21, 21, 21; int(0..21)],
         [2, 9, 2, 11, 12, 9, 9, 9, 9, 9, 21, 11, 12, 21, 21, 21, 21, 21, 21, 21, 21, 21; int(0..21)],
         [3, 10, 11, 3, 10, 13, 14, 15, 16, 21, 10, 11, 21, 13, 14, 15, 16, 21, 21, 21, 21, 21; int(0..21)],
         [4, 10, 12, 10, 4, 17, 18, 19, 20, 21, 10, 21, 12, 21, 21, 21, 21, 17, 18, 19, 20, 21; int(0..21)],
         [5, 9, 9, 13, 17, 5, 9, 9, 9, 9, 21, 21, 21, 13, 21, 21, 21, 17, 21, 21, 21, 21; int(0..21)],
         [6, 9, 9, 14, 18, 9, 6, 9, 9, 9, 21, 21, 21, 21, 14, 21, 21, 21, 18, 21, 21, 21; int(0..21)],
         [7, 9, 9, 15, 19, 9, 9, 7, 9, 9, 21, 21, 21, 21, 21, 15, 21, 21, 21, 19, 21, 21; int(0..21)],
         [8, 9, 9, 16, 20, 9, 9, 9, 8, 9, 21, 21, 21, 21, 21, 21, 16, 21, 21, 21, 20, 21; int(0..21)],
         [9, 9, 9, 21, 21, 9, 9, 9, 9, 9, 21, 21, 21, 21, 21, 21, 21, 21, 21, 21, 21, 21; int(0..21)],
         [10, 10, 21, 10, 10, 21, 21, 21, 21, 21, 10, 21, 21, 21, 21, 21, 21, 21, 21, 21, 21, 21; int(0..21)],
         [11, 21, 11, 11, 21, 21, 21, 21, 21, 21, 21, 11, 21, 21, 21, 21, 21, 21, 21, 21, 21, 21; int(0..21)],
         [12, 21, 12, 21, 12, 21, 21, 21, 21, 21, 21, 21, 12, 21, 21, 21, 21, 21, 21, 21, 21, 21; int(0..21)],
         [13, 21, 21, 13, 21, 13, 21, 21, 21, 21, 21, 21, 21, 13, 21, 21, 21, 21, 21, 21, 21, 21; int(0..21)],
         [14, 21, 21, 14, 21, 21, 14, 21, 21, 21, 21, 21, 21, 21, 14, 21, 21, 21, 21, 21, 21, 21; int(0..21)],
         [15, 21, 21, 15, 21, 21, 21, 15, 21, 21, 21, 21, 21, 21, 21, 15, 21, 21, 21, 21, 21, 21; int(0..21)],
         [16, 21, 21, 16, 21, 21, 21, 21, 16, 21, 21, 21, 21, 21, 21, 21, 16, 21, 21, 21, 21, 21; int(0..21)],
         [17, 21, 21, 21, 17, 17, 21, 21, 21, 21, 21, 21, 21, 21, 21, 21, 21, 17, 21, 21, 21, 21; int(0..21)],
         [18, 21, 21, 21, 18, 21, 18, 21, 21, 21, 21, 21, 21, 21, 21, 21, 21, 21, 18, 21, 21, 21; int(0..21)],
         [19, 21, 21, 21, 19, 21, 21, 19, 21, 21, 21, 21, 21, 21, 21, 21, 21, 21, 21, 19, 21, 21; int(0..21)],
         [20, 21, 21, 21, 20, 21, 21, 21, 20, 21, 21, 21, 21, 21, 21, 21, 21, 21, 21, 21, 20, 21; int(0..21)],
         [21, 21, 21, 21, 21, 21, 21, 21, 21, 21, 21, 21, 21, 21, 21, 21, 21, 21, 21, 21, 21, 21; int(0..21)];
             int(0..21)]
$ Visualisation for J_FunctionND
$  0  1  2  3  4  5  6  7  8  9 10 11 12 13 14 15 16 17 18 19 20 21
$  1  1  9 10 10  9  9  9  9  9 10 21 21 21 21 21 21 21 21 21 21 21
$  2  9  2 11 12  9  9  9  9  9 21 11 12 21 21 21 21 21 21 21 21 21
$  3 10 11  3 10 13 14 15 16 21 10 11 21 13 14 15 16 21 21 21 21 21
$  4 10 12 10  4 17 18 19 20 21 10 21 12 21 21 21 21 17 18 19 20 21
$  5  9  9 13 17  5  9  9  9  9 21 21 21 13 21 21 21 17 21 21 21 21
$  6  9  9 14 18  9  6  9  9  9 21 21 21 21 14 21 21 21 18 21 21 21
$  7  9  9 15 19  9  9  7  9  9 21 21 21 21 21 15 21 21 21 19 21 21
$  8  9  9 16 20  9  9  9  8  9 21 21 21 21 21 21 16 21 21 21 20 21
$  9  9  9 21 21  9  9  9  9  9 21 21 21 21 21 21 21 21 21 21 21 21
$ 10 10 21 10 10 21 21 21 21 21 10 21 21 21 21 21 21 21 21 21 21 21
$ 11 21 11 11 21 21 21 21 21 21 21 11 21 21 21 21 21 21 21 21 21 21
$ 12 21 12 21 12 21 21 21 21 21 21 21 12 21 21 21 21 21 21 21 21 21
$ 13 21 21 13 21 13 21 21 21 21 21 21 21 13 21 21 21 21 21 21 21 21
$ 14 21 21 14 21 21 14 21 21 21 21 21 21 21 14 21 21 21 21 21 21 21
$ 15 21 21 15 21 21 21 15 21 21 21 21 21 21 21 15 21 21 21 21 21 21
$ 16 21 21 16 21 21 21 21 16 21 21 21 21 21 21 21 16 21 21 21 21 21
$ 17 21 21 21 17 17 21 21 21 21 21 21 21 21 21 21 21 17 21 21 21 21
$ 18 21 21 21 18 21 18 21 21 21 21 21 21 21 21 21 21 21 18 21 21 21
$ 19 21 21 21 19 21 21 19 21 21 21 21 21 21 21 21 21 21 21 19 21 21
$ 20 21 21 21 20 21 21 21 20 21 21 21 21 21 21 21 21 21 21 21 20 21
$ 21 21 21 21 21 21 21 21 21 21 21 21 21 21 21 21 21 21 21 21 21 21

letting M_FunctionND be
        [[0, 0, 0, 0, 0, 0, 0, 0, 0, 0, 0, 0, 0, 0, 0, 0, 0, 0, 0, 0, 0, 0; int(0..21)],
         [0, 1, 0, 0, 0, 0, 0, 0, 0, 1, 1, 0, 0, 0, 0, 0, 0, 0, 0, 0, 0, 1; int(0..21)],
         [0, 0, 2, 0, 0, 0, 0, 0, 0, 2, 0, 2, 2, 0, 0, 0, 0, 0, 0, 0, 0, 2; int(0..21)],
         [0, 0, 0, 3, 0, 0, 0, 0, 0, 0, 3, 3, 0, 3, 3, 3, 3, 0, 0, 0, 0, 3; int(0..21)],
         [0, 0, 0, 0, 4, 0, 0, 0, 0, 0, 4, 0, 4, 0, 0, 0, 0, 4, 4, 4, 4, 4; int(0..21)],
         [0, 0, 0, 0, 0, 5, 0, 0, 0, 5, 0, 0, 0, 5, 0, 0, 0, 5, 0, 0, 0, 5; int(0..21)],
         [0, 0, 0, 0, 0, 0, 6, 0, 0, 6, 0, 0, 0, 0, 6, 0, 0, 0, 6, 0, 0, 6; int(0..21)],
         [0, 0, 0, 0, 0, 0, 0, 7, 0, 7, 0, 0, 0, 0, 0, 7, 0, 0, 0, 7, 0, 7; int(0..21)],
         [0, 0, 0, 0, 0, 0, 0, 0, 8, 8, 0, 0, 0, 0, 0, 0, 8, 0, 0, 0, 8, 8; int(0..21)],
         [0, 1, 2, 0, 0, 5, 6, 7, 8, 9, 1, 2, 2, 5, 6, 7, 8, 5, 6, 7, 8, 9; int(0..21)],
         [0, 1, 0, 3, 4, 0, 0, 0, 0, 1, 10, 3, 4, 3, 3, 3, 3, 4, 4, 4, 4, 10; int(0..21)],
         [0, 0, 2, 3, 0, 0, 0, 0, 0, 2, 3, 11, 2, 3, 3, 3, 3, 0, 0, 0, 0, 11; int(0..21)],
         [0, 0, 2, 0, 4, 0, 0, 0, 0, 2, 4, 2, 12, 0, 0, 0, 0, 4, 4, 4, 4, 12; int(0..21)],
         [0, 0, 0, 3, 0, 5, 0, 0, 0, 5, 3, 3, 0, 13, 3, 3, 3, 5, 0, 0, 0, 13; int(0..21)],
         [0, 0, 0, 3, 0, 0, 6, 0, 0, 6, 3, 3, 0, 3, 14, 3, 3, 0, 6, 0, 0, 14; int(0..21)],
         [0, 0, 0, 3, 0, 0, 0, 7, 0, 7, 3, 3, 0, 3, 3, 15, 3, 0, 0, 7, 0, 15; int(0..21)],
         [0, 0, 0, 3, 0, 0, 0, 0, 8, 8, 3, 3, 0, 3, 3, 3, 16, 0, 0, 0, 8, 16; int(0..21)],
         [0, 0, 0, 0, 4, 5, 0, 0, 0, 5, 4, 0, 4, 5, 0, 0, 0, 17, 4, 4, 4, 17; int(0..21)],
         [0, 0, 0, 0, 4, 0, 6, 0, 0, 6, 4, 0, 4, 0, 6, 0, 0, 4, 18, 4, 4, 18; int(0..21)],
         [0, 0, 0, 0, 4, 0, 0, 7, 0, 7, 4, 0, 4, 0, 0, 7, 0, 4, 4, 19, 4, 19; int(0..21)],
         [0, 0, 0, 0, 4, 0, 0, 0, 8, 8, 4, 0, 4, 0, 0, 0, 8, 4, 4, 4, 20, 20; int(0..21)],
         [0, 1, 2, 3, 4, 5, 6, 7, 8, 9, 10, 11, 12, 13, 14, 15, 16, 17, 18, 19, 20, 21; int(0..21)];
             int(0..21)]
$ Visualisation for M_FunctionND
$  0  0  0  0  0  0  0  0  0  0  0  0  0  0  0  0  0  0  0  0  0  0
$  0  1  0  0  0  0  0  0  0  1  1  0  0  0  0  0  0  0  0  0  0  1
$  0  0  2  0  0  0  0  0  0  2  0  2  2  0  0  0  0  0  0  0  0  2
$  0  0  0  3  0  0  0  0  0  0  3  3  0  3  3  3  3  0  0  0  0  3
$  0  0  0  0  4  0  0  0  0  0  4  0  4  0  0  0  0  4  4  4  4  4
$  0  0  0  0  0  5  0  0  0  5  0  0  0  5  0  0  0  5  0  0  0  5
$  0  0  0  0  0  0  6  0  0  6  0  0  0  0  6  0  0  0  6  0  0  6
$  0  0  0  0  0  0  0  7  0  7  0  0  0  0  0  7  0  0  0  7  0  7
$  0  0  0  0  0  0  0  0  8  8  0  0  0  0  0  0  8  0  0  0  8  8
$  0  1  2  0  0  5  6  7  8  9  1  2  2  5  6  7  8  5  6  7  8  9
$  0  1  0  3  4  0  0  0  0  1 10  3  4  3  3  3  3  4  4  4  4 10
$  0  0  2  3  0  0  0  0  0  2  3 11  2  3  3  3  3  0  0  0  0 11
$  0  0  2  0  4  0  0  0  0  2  4  2 12  0  0  0  0  4  4  4  4 12
$  0  0  0  3  0  5  0  0  0  5  3  3  0 13  3  3  3  5  0  0  0 13
$  0  0  0  3  0  0  6  0  0  6  3  3  0  3 14  3  3  0  6  0  0 14
$  0  0  0  3  0  0  0  7  0  7  3  3  0  3  3 15  3  0  0  7  0 15
$  0  0  0  3  0  0  0  0  8  8  3  3  0  3  3  3 16  0  0  0  8 16
$  0  0  0  0  4  5  0  0  0  5  4  0  4  5  0  0  0 17  4  4  4 17
$  0  0  0  0  4  0  6  0  0  6  4  0  4  0  6  0  0  4 18  4  4 18
$  0  0  0  0  4  0  0  7  0  7  4  0  4  0  0  7  0  4  4 19  4 19
$  0  0  0  0  4  0  0  0  8  8  4  0  4  0  0  0  8  4  4  4 20 20
$  0  1  2  3  4  5  6  7  8  9 10 11 12 13 14 15 16 17 18 19 20 21

letting R_Function1D be [0, 1, 1, 1, 1, 1, 1, 1, 1, 2, 2, 2, 2, 2, 2, 2, 2, 2, 2, 2, 2, 3; int(0..21)]
